sat
(:added-eqs                       55169
 :arith-eq-adapter                1489
 :arith-bound-propagations-lp     1278
 :arith-branch                    21
 :arith-conflicts                 3013
 :arith-cube-calls                7
 :arith-diseq                     6906
 :arith-fixed-eqs                 6178
 :arith-gcd-calls                 463
 :arith-gomory-cuts               5
 :arith-grobner-calls             529
 :arith-grobner-conflicts         251
 :arith-hnf-calls                 2
 :arith-horner-calls              152
 :arith-horner-conflicts          5
 :arith-horner-cross-nested-forms 31076
 :arith-lower                     15657
 :arith-make-feasible             11030
 :arith-max-columns               2890
 :arith-max-rows                  1193
 :arith-nla-add-bounds            210
 :arith-nla-lemmas                1959
 :arith-nla-propagate-bounds      673
 :arith-nla-propagate-eq          26736
 :arith-nra-calls                 65
 :arith-offset-eqs                8092
 :arith-patches                   463
 :arith-patches-success           433
 :arith-upper                     29414
 :binary-propagations             76428
 :cnf-encoding-aux-vars           26
 :conflicts                       636
 :decisions                       152643
 :del-clause                      2986
 :elim-unconstrained              97
 :final-checks                    1055
 :max-memory                      57.97
 :memory                          20.34
 :minimized-lits                  552
 :mk-bool-var                     10700
 :mk-clause                       5560
 :mk-clause-binary                41749
 :nlsat-conflicts                 6919
 :nlsat-decisions                 665
 :nlsat-propagations              447630
 :nlsat-stages                    286149
 :num-allocs                      18983752363.00
 :num-checks                      2
 :propagations                    108834
 :restarts                        5
 :rlimit-count                    7964875
 :solve-eqs-elim-vars             147
 :solve-eqs-steps                 2231
 :time                            7.29
 :total-time                      7.31)
